NAME          
ROWS
 N  OBJ
 L  c1
 L  c2
COLUMNS
    MARKER    'MARKER'                 'INTORG'
    x[1]      c1        117
    x[1]      c2        881
    x[1]      OBJ       -643
    x[2]      c1        1000
    x[2]      c2        282
    x[2]      OBJ       -911
    x[3]      c1        520
    x[3]      c2        224
    x[3]      OBJ       -556
    x[4]      c1        971
    x[4]      c2        84
    x[4]      OBJ       -253
    x[5]      c1        300
    x[5]      c2        213
    x[5]      OBJ       -103
    x[6]      c1        72
    x[6]      c2        37
    x[6]      OBJ       -713
    x[7]      c1        401
    x[7]      c2        295
    x[7]      OBJ       -629
    x[8]      c1        472
    x[8]      c2        159
    x[8]      OBJ       -17
    x[9]      c1        350
    x[9]      c2        176
    x[9]      OBJ       -723
    x[10]     c1        465
    x[10]     c2        491
    x[10]     OBJ       -922
RHS
    rhs       c1        2334
    rhs       c2        1421
RANGES
BOUNDS
 BV bounds    x[1]
 BV bounds    x[2]
 BV bounds    x[3]
 BV bounds    x[4]
 BV bounds    x[5]
 BV bounds    x[6]
 BV bounds    x[7]
 BV bounds    x[8]
 BV bounds    x[9]
 BV bounds    x[10]
ENDATA
